p tdp 20 79
1 7
1 9
1 10
1 16
1 17
1 18
1 20
2 7
2 8
2 11
2 13
2 14
2 17
2 19
3 6
3 7
3 8
3 11
3 12
3 16
3 18
3 19
4 6
4 9
4 12
4 13
4 14
4 17
5 7
5 10
5 14
5 20
6 7
6 10
6 11
6 13
6 15
6 18
7 9
7 15
8 9
8 13
8 14
8 16
8 17
8 18
9 10
9 12
9 13
9 16
9 20
10 11
10 15
10 16
10 18
10 19
10 20
11 12
11 13
11 14
11 16
11 17
11 18
12 13
12 14
12 16
12 18
13 15
13 16
14 18
14 19
15 18
15 19
15 20
16 17
16 18
17 18
17 19
19 20
